c Generated map
c Size: 8 * 8, weights in range: 1 to 10, walls: True, with ratio 0.1
c dim 5 of 10
c
p sp 64 93
c graph contains 64 nodes and 93 arcs
c
a 1 9 1
a 9 1 1
a 1 2 6
a 2 1 6
a 2 10 4
a 10 2 4
a 2 3 3
a 3 2 3
a 3 11 7
a 11 3 7
a 3 4 8
a 4 3 8
a 4 12 7
a 12 4 7
a 4 5 6
a 5 4 6
a 5 13 1
a 13 5 1
a 5 6 4
a 6 5 4
a 6 14 8
a 14 6 8
a 8 16 9
a 16 8 9
a 9 17 9
a 17 9 9
a 9 10 10
a 10 9 10
a 10 18 3
a 18 10 3
a 10 11 6
a 11 10 6
a 11 19 2
a 19 11 2
a 11 12 2
a 12 11 2
a 12 20 7
a 20 12 7
a 12 13 10
a 13 12 10
a 13 21 10
a 21 13 10
a 13 14 4
a 14 13 4
a 14 22 7
a 22 14 7
a 16 24 8
a 24 16 8
a 17 25 1
a 25 17 1
a 17 18 6
a 18 17 6
a 18 26 4
a 26 18 4
a 18 19 4
a 19 18 4
a 19 20 4
a 20 19 4
a 20 28 5
a 28 20 5
a 20 21 4
a 21 20 4
a 21 29 10
a 29 21 10
a 21 22 9
a 22 21 9
a 22 30 5
a 30 22 5
a 22 23 6
a 23 22 6
a 23 24 3
a 24 23 3
a 24 32 4
a 32 24 4
a 25 33 9
a 33 25 9
a 25 26 8
a 26 25 8
a 26 34 5
a 34 26 5
a 28 36 3
a 36 28 3
a 28 29 9
a 29 28 9
a 29 37 4
a 37 29 4
a 29 30 2
a 30 29 2
a 30 38 1
a 38 30 1
a 32 40 10
a 40 32 10
a 33 41 1
a 41 33 1
a 33 34 10
a 34 33 10
a 34 42 5
a 42 34 5
a 34 35 9
a 35 34 9
a 35 43 1
a 43 35 1
a 35 36 1
a 36 35 1
a 36 44 8
a 44 36 8
a 36 37 3
a 37 36 3
a 37 45 10
a 45 37 10
a 37 38 2
a 38 37 2
a 38 46 8
a 46 38 8
a 38 39 4
a 39 38 4
a 39 47 4
a 47 39 4
a 39 40 8
a 40 39 8
a 41 49 1
a 49 41 1
a 41 42 7
a 42 41 7
a 42 50 5
a 50 42 5
a 42 43 9
a 43 42 9
a 43 51 5
a 51 43 5
a 43 44 9
a 44 43 9
a 44 52 2
a 52 44 2
a 44 45 5
a 45 44 5
a 45 53 7
a 53 45 7
a 45 46 10
a 46 45 10
a 46 54 1
a 54 46 1
a 46 47 8
a 47 46 8
a 47 55 5
a 55 47 5
a 49 57 6
a 57 49 6
a 49 50 1
a 50 49 1
a 50 58 3
a 58 50 3
a 50 51 5
a 51 50 5
a 51 59 9
a 59 51 9
a 51 52 10
a 52 51 10
a 52 60 4
a 60 52 4
a 52 53 2
a 53 52 2
a 53 61 9
a 61 53 9
a 53 54 7
a 54 53 7
a 54 62 9
a 62 54 9
a 54 55 4
a 55 54 4
a 55 63 6
a 63 55 6
a 57 58 2
a 58 57 2
a 58 59 5
a 59 58 5
a 59 60 2
a 60 59 2
a 60 61 5
a 61 60 5
a 61 62 2
a 62 61 2
a 62 63 7
a 63 62 7
a 63 64 2
a 64 63 2
